HUN,8,6,191
2,28,1,16,0,3,4,2,5,19,3,5
2,28,0,12,1,19,3,5,5,22,4,8
0,11,1,8,2,9,3,5,4,20,5,6
1,13,2,7,0,27,3,23,4,29,5,9
2,17,0,25,1,15,3,25,4,26,5,20
2,9,0,8,1,20,3,20,5,11,4,3
2,28,1,6,0,12,5,30,3,3,4,3
2,28,1,30,0,17,4,22,5,28,3,3
